p edge 30 36 5
v 4 5 8 17 18
v 11 1 2 6 10 11 13 19 22 23 29 30
v 5 9 12 15 20 21
v 6 7 16 24 26 27 28
v 4 3 4 14 25
e 1 6
e 1 11
e 1 21
e 1 23
e 2 20
e 3 4
e 3 5
e 3 7
e 4 26
e 5 23
e 5 25
e 6 7
e 7 11
e 7 17
e 8 9
e 8 13
e 9 14
e 9 26
e 10 15
e 11 13
e 11 15
e 11 19
e 12 14
e 12 18
e 12 26
e 12 30
e 13 28
e 16 18
e 17 19
e 17 26
e 17 29
e 18 27
e 19 21
e 19 23
e 23 30
e 25 30
